c File: instances/12_0.20_1.col
c
c Description: Random graph of size 12 vertices and P(0.2) of edges between any two vertices.
p col 12 66
e 1 3
e 1 5
e 1 10
e 2 4
e 2 9
e 2 10
e 3 6
e 3 12
e 5 6
e 5 9
e 5 12
e 7 9
e 7 12
e 8 11
e 10 11
e 11 12